# ================================================================
# Orca input file made in Gabedit
# ================================================================
!  NumFreq  B3LYP Opt
%pal
nprocs 4
end

%FREQ TEMP 300, 400, 500, 600, 700, 800, 900, 1000, 1100, 1200, 1300
       PRESSURE 1, 70, 80, 90
end
! PrintBasis 6-31G** 
%output
     print[p_mos] 1
 end #output
* xyz 0   1
 C  -0.739000 1.189000 -0.007334
 C  0.614000 1.208000 0.351666
 C  1.353000 0.019000 0.358666
 C  0.739000 -1.189000 0.006666
 C  -0.614000 -1.208000 -0.351334
 C  -1.353000 -0.019000 -0.358334
 H  -1.309000 2.106000 -0.012334
 H  1.088000 2.140000 0.622666
 H  2.397000 0.034000 0.634666
 H  1.309000 -2.106000 0.012666
 H  -1.088000 -2.140000 -0.622334
 H  -2.397000 -0.034000 -0.635334
*
